Minimize
  - 40 y_0 - 44 y_1 - 46 y_2 - 61 y_3 - 49 y_4 - 43 y_5 - 38 y_6 - 50 y_7
   - 42 y_8 - 39 y_9 - 34 y_10 - 36 y_11 - 15 y_12 - 46 y_13 - 50 y_14
   - 28 y_15 - 47 y_16 - 24 y_17 - 33 y_18 - 27 y_19 - 52 y_20 - 45 y_21
   - 30 y_22 - 34 y_23 - 44 y_24 - 27 y_25 - 50 y_26 - 38 y_27 - 40 y_28
   - 14 y_29 - 29 y_30 - 37 y_31 - 36 y_32 - 39 y_33 - 17 y_34 - 23 y_35
   - 41 y_36 - 27 y_37 - 48 y_38 - 26 y_39 - 45 y_40 - 6 y_41 - 40 y_42
   - 49 y_43 - 18 y_44 - 33 y_45 - 18 y_46 - 15 y_47 - 46 y_48 + 111 x_0_1
   + 70 x_0_2 + 75 x_0_3 + 87 x_0_4 + 32 x_0_6 + 85 x_0_8 + 78 x_0_9
   + 89 x_0_10 + 13 x_0_11 + 51 x_0_12 + 12 x_0_13 + 68 x_0_14 + 82 x_0_15
   + 88 x_0_16 + 31 x_0_17 + 16 x_0_18 + 27 x_0_19 + 49 x_0_20 + 40 x_0_22
   + 33 x_0_23 + 25 x_0_24 + 54 x_0_26 + 71 x_0_29 + 26 x_0_30 + 83 x_0_31
   + 49 x_0_33 + 49 x_0_35 + 80 x_0_36 + 70 x_0_37 + 90 x_0_38 + 27 x_0_40
   + 67 x_0_41 + 44 x_0_42 + 70 x_0_43 + 60 x_0_44 + 96 x_0_45 + 67 x_0_46
   + 79 x_0_49 + 55 x_1_2 + 90 x_1_3 + 43 x_1_4 + 80 x_1_5 + 82 x_1_6
   + 98 x_1_7 + 35 x_1_9 + 98 x_1_11 + 118 x_1_13 + 35 x_1_15 + 38 x_1_16
   + 97 x_1_17 + 90 x_1_19 + 94 x_1_20 + 5 x_1_21 + 72 x_1_22 + 79 x_1_23
   + 50 x_1_25 + 87 x_1_30 + 29 x_1_31 + 15 x_1_32 + 67 x_1_33 + 67 x_1_35
   + 36 x_1_36 + 44 x_1_37 + 38 x_1_38 + 86 x_1_39 + 97 x_1_40 + 85 x_1_41
   + 73 x_1_42 + 61 x_1_43 + 63 x_1_44 + 21 x_1_45 + 56 x_1_46 + 81 x_1_47
   + 17 x_2_4 + 38 x_2_6 + 46 x_2_7 + 23 x_2_9 + 43 x_2_10 + 67 x_2_12
   + 72 x_2_13 + 12 x_2_14 + 47 x_2_15 + 20 x_2_16 + 71 x_2_17 + 60 x_2_19
   + 39 x_2_20 + 51 x_2_21 + 40 x_2_23 + 50 x_2_24 + 15 x_2_28 + 54 x_2_30
   + 56 x_2_32 + 22 x_2_33 + 67 x_2_34 + 47 x_2_35 + 40 x_2_37 + 22 x_2_38
   + 58 x_2_39 + 26 x_2_42 + 7 x_2_43 + 55 x_2_44 + 52 x_2_45 + 55 x_2_46
   + 40 x_2_48 + 91 x_2_49 + 50 x_3_6 + 60 x_3_8 + 80 x_3_10 + 67 x_3_11
   + 94 x_3_12 + 26 x_3_14 + 52 x_3_16 + 90 x_3_17 + 72 x_3_18 + 26 x_3_20
   + 86 x_3_21 + 64 x_3_22 + 50 x_3_24 + 71 x_3_25 + 24 x_3_26 + 98 x_3_29
   + 72 x_3_30 + 93 x_3_32 + 44 x_3_33 + 76 x_3_35 + 56 x_3_36 + 76 x_3_37
   + 53 x_3_38 + 48 x_3_40 + 112 x_3_41 + 30 x_3_43 + 89 x_3_46 + 95 x_3_47
   + 47 x_4_5 + 54 x_4_6 + 62 x_4_7 + 16 x_4_8 + 21 x_4_9 + 38 x_4_10
   + 74 x_4_11 + 77 x_4_12 + 26 x_4_14 + 47 x_4_15 + 5 x_4_16 + 85 x_4_17
   + 75 x_4_18 + 55 x_4_20 + 38 x_4_21 + 53 x_4_22 + 55 x_4_23 + 67 x_4_24
   + 44 x_4_25 + 36 x_4_27 + 30 x_4_28 + 48 x_4_32 + 58 x_4_35 + 72 x_4_39
   + 65 x_4_40 + 90 x_4_41 + 63 x_4_44 + 61 x_4_46 + 78 x_4_47 + 26 x_4_48
   + 98 x_4_49 + 12 x_5_6 + 19 x_5_7 + 49 x_5_8 + 62 x_5_10 + 31 x_5_11
   + 57 x_5_12 + 43 x_5_13 + 26 x_5_14 + 60 x_5_15 + 49 x_5_16 + 52 x_5_17
   + 35 x_5_18 + 40 x_5_19 + 19 x_5_20 + 77 x_5_21 + 18 x_5_23 + 20 x_5_24
   + 42 x_5_25 + 66 x_5_27 + 20 x_5_28 + 65 x_5_29 + 51 x_5_31 + 14 x_5_33
   + 54 x_5_34 + 40 x_5_35 + 45 x_5_36 + 49 x_5_37 + 51 x_5_38 + 18 x_5_40
   + 75 x_5_41 + 8 x_5_42 + 29 x_5_43 + 53 x_5_44 + 70 x_5_45 + 57 x_5_47
   + 67 x_5_48 + 86 x_5_49 + 25 x_6_7 + 53 x_6_8 + 62 x_6_10 + 36 x_6_13
   + 36 x_6_14 + 58 x_6_15 + 56 x_6_16 + 40 x_6_17 + 23 x_6_18 + 28 x_6_19
   + 29 x_6_20 + 80 x_6_21 + 18 x_6_22 + 17 x_6_24 + 38 x_6_25 + 27 x_6_26
   + 68 x_6_27 + 24 x_6_28 + 58 x_6_29 + 53 x_6_31 + 77 x_6_32 + 17 x_6_33
   + 43 x_6_34 + 32 x_6_35 + 58 x_6_38 + 28 x_6_39 + 17 x_6_40 + 11 x_6_42
   + 38 x_6_43 + 45 x_6_44 + 70 x_6_45 + 47 x_6_47 + 71 x_6_48 + 67 x_7_8
   + 64 x_7_9 + 81 x_7_10 + 34 x_7_11 + 71 x_7_12 + 35 x_7_13 + 38 x_7_14
   + 80 x_7_15 + 60 x_7_17 + 49 x_7_19 + 96 x_7_21 + 32 x_7_23 + 15 x_7_24
   + 20 x_7_26 + 39 x_7_28 + 82 x_7_29 + 70 x_7_31 + 96 x_7_32 + 33 x_7_33
   + 57 x_7_35 + 63 x_7_36 + 68 x_7_37 + 51 x_7_39 + 89 x_7_41 + 27 x_7_42
   + 42 x_7_43 + 70 x_7_44 + 90 x_7_45 + 75 x_7_46 + 71 x_7_47 + 85 x_7_48
   + 101 x_7_49 + 7 x_8_9 + 21 x_8_10 + 90 x_8_13 + 35 x_8_14 + 12 x_8_16
   + 77 x_8_17 + 71 x_8_18 + 68 x_8_19 + 62 x_8_20 + 28 x_8_21 + 47 x_8_22
   + 52 x_8_23 + 69 x_8_24 + 32 x_8_25 + 50 x_8_26 + 21 x_8_27 + 30 x_8_28
   + 56 x_8_29 + 63 x_8_30 + 33 x_8_32 + 37 x_8_33 + 48 x_8_35 + 5 x_8_36
   + 30 x_8_37 + 14 x_8_38 + 64 x_8_39 + 77 x_8_41 + 44 x_8_42 + 50 x_8_44
   + 30 x_8_45 + 47 x_8_46 + 67 x_8_47 + 83 x_8_49 + 20 x_9_10 + 65 x_9_11
   + 59 x_9_12 + 84 x_9_13 + 35 x_9_14 + 26 x_9_15 + 33 x_9_21 + 40 x_9_22
   + 63 x_9_24 + 47 x_9_26 + 22 x_9_27 + 25 x_9_28 + 50 x_9_29 + 56 x_9_30
   + 7 x_9_31 + 34 x_9_32 + 32 x_9_33 + 40 x_9_35 + 6 x_9_36 + 57 x_9_39
   + 62 x_9_40 + 70 x_9_41 + 38 x_9_42 + 43 x_9_44 + 24 x_9_48 + 76 x_10_11
   + 57 x_10_12 + 96 x_10_13 + 13 x_10_15 + 33 x_10_16 + 74 x_10_17
   + 74 x_10_18 + 24 x_10_21 + 58 x_10_23 + 78 x_10_24 + 27 x_10_25
   + 8 x_10_27 + 42 x_10_28 + 41 x_10_29 + 64 x_10_30 + 13 x_10_31
   + 15 x_10_32 + 48 x_10_33 + 61 x_10_34 + 21 x_10_37 + 34 x_10_38
   + 58 x_10_47 + 24 x_10_48 + 43 x_11_12 + 21 x_11_13 + 75 x_11_16
   + 18 x_11_19 + 42 x_11_20 + 97 x_11_21 + 20 x_11_23 + 50 x_11_25
   + 45 x_11_26 + 44 x_11_28 + 61 x_11_29 + 15 x_11_30 + 91 x_11_32
   + 38 x_11_34 + 37 x_11_35 + 57 x_11_37 + 78 x_11_38 + 21 x_11_40
   + 60 x_11_41 + 49 x_11_44 + 83 x_11_45 + 89 x_11_48 + 72 x_11_49
   + 73 x_12_14 + 75 x_12_16 + 22 x_12_17 + 37 x_12_18 + 25 x_12_19
   + 75 x_12_20 + 82 x_12_21 + 31 x_12_22 + 39 x_12_23 + 59 x_12_24
   + 71 x_12_26 + 66 x_12_27 + 53 x_12_28 + 22 x_12_29 + 68 x_12_32
   + 50 x_12_33 + 6 x_12_34 + 20 x_12_35 + 63 x_12_36 + 38 x_12_37
   + 78 x_12_38 + 22 x_12_39 + 59 x_12_40 + 18 x_12_41 + 72 x_12_43
   + 17 x_12_44 + x_12_47 + 30 x_12_49 + 68 x_13_14 + 91 x_13_15
   + 26 x_13_18 + 45 x_13_20 + 39 x_13_23 + 23 x_13_24 + 71 x_13_25
   + 103 x_13_27 + 60 x_13_28 + 89 x_13_31 + 111 x_13_32 + 57 x_13_34
   + 58 x_13_35 + 78 x_13_37 + 94 x_13_38 + 42 x_13_39 + 25 x_13_40
   + 47 x_13_42 + 70 x_13_44 + 78 x_13_46 + 63 x_13_47 + 91 x_13_49
   + 58 x_14_15 + 30 x_14_16 + 60 x_14_18 + 62 x_14_19 + 62 x_14_21
   + 44 x_14_22 + 40 x_14_23 + 45 x_14_24 + 17 x_14_26 + 56 x_14_27
   + 20 x_14_28 + 56 x_14_30 + 41 x_14_31 + 31 x_14_36 + 51 x_14_37
   + 31 x_14_38 + 61 x_14_39 + 43 x_14_40 + 26 x_14_42 + 5 x_14_43
   + 63 x_14_44 + 64 x_14_46 + 74 x_14_47 + 51 x_14_48 + 99 x_14_49
   + 42 x_15_16 + 64 x_15_17 + 67 x_15_18 + 58 x_15_19 + 78 x_15_20
   + 36 x_15_21 + 43 x_15_22 + 53 x_15_23 + 75 x_15_24 + 68 x_15_26
   + 21 x_15_27 + 43 x_15_28 + 29 x_15_29 + 57 x_15_30 + 23 x_15_32
   + 47 x_15_33 + 54 x_15_39 + 74 x_15_40 + 51 x_15_41 + 53 x_15_42
   + 54 x_15_43 + 28 x_15_44 + 15 x_15_45 + 22 x_15_46 + 47 x_15_47
   + 36 x_15_48 + 55 x_15_49 + 84 x_16_17 + 76 x_16_18 + 59 x_16_20
   + 33 x_16_21 + 53 x_16_22 + 56 x_16_23 + 69 x_16_24 + 41 x_16_25
   + 46 x_16_26 + 31 x_16_27 + 67 x_16_29 + 69 x_16_30 + 39 x_16_33
   + 76 x_16_34 + 56 x_16_35 + 12 x_16_36 + 3 x_16_38 + 71 x_16_39
   + 68 x_16_40 + 88 x_16_41 + 45 x_16_42 + 24 x_16_43 + 41 x_16_45
   + 57 x_16_46 + 76 x_16_47 + 94 x_16_49 + 12 x_17_19 + 67 x_17_20
   + 98 x_17_21 + 32 x_17_22 + 34 x_17_23 + 46 x_17_24 + 47 x_17_25
   + 67 x_17_26 + 57 x_17_28 + 44 x_17_29 + 72 x_17_31 + 86 x_17_32
   + 17 x_17_34 + 30 x_17_35 + 53 x_17_37 + 87 x_17_38 + 14 x_17_39
   + 47 x_17_40 + 36 x_17_41 + 37 x_17_44 + 22 x_17_47 + 48 x_17_49
   + 12 x_18_19 + 96 x_18_21 + 25 x_18_24 + 45 x_18_28 + 56 x_18_29
   + 10 x_18_30 + 69 x_18_31 + 88 x_18_32 + 32 x_18_34 + 33 x_18_35
   + 67 x_18_36 + 55 x_18_37 + 79 x_18_38 + 15 x_18_39 + 27 x_18_40
   + 54 x_18_41 + 34 x_18_42 + 61 x_18_43 + 44 x_18_44 + 81 x_18_45
   + 52 x_18_46 + 37 x_18_47 + 89 x_18_48 + 21 x_19_22 + 22 x_19_23
   + 40 x_19_25 + 54 x_19_26 + 75 x_19_27 + 45 x_19_28 + 44 x_19_29
   + 63 x_19_31 + 80 x_19_32 + 39 x_19_33 + 20 x_19_34 + 24 x_19_35
   + 47 x_19_37 + 76 x_19_38 + 37 x_19_40 + 42 x_19_41 + 34 x_19_44
   + 73 x_19_45 + 41 x_19_46 + 84 x_19_48 + 54 x_19_49 + 90 x_20_21
   + 46 x_20_22 + 24 x_20_24 + 60 x_20_25 + 13 x_20_26 + 81 x_20_27
   + 36 x_20_28 + 49 x_20_30 + 93 x_20_32 + 31 x_20_33 + 59 x_20_35
   + 60 x_20_38 + 56 x_20_39 + 22 x_20_40 + 93 x_20_41 + 27 x_20_42
   + 35 x_20_43 + 72 x_20_44 + 87 x_20_45 + 76 x_20_46 + 76 x_20_47
   + 105 x_20_49 + 71 x_21_22 + 78 x_21_23 + 78 x_21_26 + 16 x_21_27
   + 57 x_21_28 + 65 x_21_29 + 87 x_21_30 + 19 x_21_32 + 65 x_21_33
   + 85 x_21_34 + 67 x_21_35 + 33 x_21_36 + 44 x_21_37 + 33 x_21_38
   + 71 x_21_42 + 57 x_21_43 + 64 x_21_44 + 83 x_21_47 + 12 x_21_48
   + 11 x_22_23 + 34 x_22_24 + 23 x_22_25 + 56 x_22_27 + 40 x_22_29
   + 16 x_22_30 + 44 x_22_31 + 64 x_22_32 + 14 x_22_35 + 43 x_22_36
   + 31 x_22_37 + 56 x_22_38 + 18 x_22_39 + 34 x_22_40 + 48 x_22_41
   + 21 x_22_42 + 27 x_22_44 + 32 x_22_46 + 31 x_22_47 + 59 x_22_49
   + 23 x_23_24 + 33 x_23_26 + 64 x_23_27 + 25 x_23_28 + 16 x_23_30
   + 51 x_23_31 + 73 x_23_32 + 18 x_23_33 + 48 x_23_36 + 58 x_23_38
   + 21 x_23_39 + 23 x_23_40 + 57 x_23_41 + 15 x_23_42 + 42 x_23_43
   + 38 x_23_44 + 66 x_23_45 + 44 x_23_46 + 70 x_23_48 + 55 x_24_25
   + 84 x_24_27 + 30 x_24_30 + 69 x_24_31 + 31 x_24_33 + 47 x_24_35
   + 63 x_24_37 + 71 x_24_38 + 37 x_24_39 + 2 x_24_40 + 25 x_24_42
   + 48 x_24_43 + 87 x_24_45 + 66 x_24_46 + 89 x_24_49 + 27 x_25_28
   + 37 x_25_30 + 25 x_25_31 + 30 x_25_36 + 8 x_25_37 + 46 x_25_41
   + 44 x_25_43 + 19 x_25_44 + 34 x_25_45 + 18 x_25_46 + 35 x_25_47
   + 54 x_25_49 + 69 x_26_27 + 77 x_26_29 + 54 x_26_31 + 23 x_26_33
   + 69 x_26_34 + 53 x_26_35 + 45 x_26_36 + 58 x_26_37 + 48 x_26_38
   + 28 x_26_40 + 89 x_26_41 + 20 x_26_42 + 22 x_26_43 + 65 x_26_44
   + 68 x_26_46 + 72 x_26_47 + 100 x_26_49 + 46 x_27_28 + 49 x_27_29
   + 72 x_27_30 + 53 x_27_33 + 69 x_27_34 + 52 x_27_35 + 25 x_27_36
   + 29 x_27_37 + 32 x_27_38 + 83 x_27_40 + 51 x_27_43 + 11 x_27_45
   + 42 x_27_46 + 67 x_27_47 + 76 x_27_49 + 54 x_28_29 + 39 x_28_30
   + 31 x_28_31 + 57 x_28_32 + 8 x_28_33 + 34 x_28_35 + 25 x_28_36
   + 33 x_28_37 + 34 x_28_38 + 43 x_28_39 + 38 x_28_40 + 69 x_28_41
   + 14 x_28_42 + 43 x_28_44 + 51 x_28_45 + 48 x_28_48 + 47 x_29_31
   + 49 x_29_32 + 55 x_29_33 + 55 x_29_36 + 69 x_29_38 + 40 x_29_39
   + 73 x_29_40 + 58 x_29_42 + 72 x_29_43 + 10 x_29_46 + 23 x_29_47
   + 65 x_29_48 + 27 x_29_49 + 60 x_30_31 + 78 x_30_32 + 24 x_30_34
   + 59 x_30_36 + 45 x_30_37 + 71 x_30_38 + 7 x_30_39 + 31 x_30_40
   + 30 x_30_42 + 34 x_30_44 + 29 x_30_47 + 59 x_30_49 + 27 x_31_32
   + 38 x_31_33 + 61 x_31_34 + 11 x_31_36 + 22 x_31_37 + 23 x_31_38
   + 68 x_31_40 + 69 x_31_41 + 42 x_31_44 + 22 x_31_45 + 38 x_31_46
   + 75 x_31_49 + 63 x_32_33 + 72 x_32_34 + 57 x_32_35 + 37 x_32_36
   + 34 x_32_37 + 76 x_32_39 + 93 x_32_40 + 70 x_32_42 + 51 x_32_44
   + 8 x_32_45 + 69 x_32_47 + 31 x_33_35 + 36 x_33_37 + 41 x_33_38
   + 30 x_33_40 + 67 x_33_41 + 24 x_33_43 + 43 x_33_44 + 46 x_33_46
   + 78 x_33_49 + 20 x_34_35 + 65 x_34_36 + 41 x_34_37 + 79 x_34_38
   + 17 x_34_39 + 55 x_34_40 + 21 x_34_44 + 5 x_34_47 + 35 x_34_49
   + 23 x_35_37 + 59 x_35_38 + 20 x_35_39 + 36 x_35_41 + 33 x_35_42
   + 52 x_35_43 + 20 x_35_46 + 62 x_35_48 + 47 x_35_49 + 29 x_36_37
   + 14 x_36_38 + 61 x_36_39 + 63 x_36_40 + 39 x_36_42 + 26 x_36_43
   + 33 x_36_45 + 46 x_36_46 + 64 x_36_47 + 23 x_36_48 + 83 x_36_49
   + 62 x_37_40 + 47 x_37_41 + 41 x_37_42 + 47 x_37_43 + 26 x_37_45
   + 17 x_37_46 + 39 x_37_47 + 41 x_37_48 + 54 x_37_49 + 70 x_38_40
   + 47 x_38_42 + 26 x_38_43 + 63 x_38_44 + 60 x_38_46 + 79 x_38_47
   + 21 x_38_48 + 38 x_39_40 + 39 x_39_41 + 30 x_39_44 + 69 x_39_45
   + 22 x_39_47 + 80 x_39_48 + 52 x_39_49 + 86 x_40_45 + 66 x_40_46
   + 60 x_40_47 + 85 x_40_48 + 90 x_40_49 + 69 x_41_42 + 88 x_41_43
   + 28 x_41_44 + 87 x_41_48 + 12 x_41_49 + 46 x_42_44 + 61 x_43_44
   + 59 x_43_45 + 62 x_43_46 + 73 x_43_47 + 46 x_43_48 + 97 x_43_49
   + 43 x_44_45 + 8 x_44_46 + 36 x_44_49 + 36 x_45_46 + 61 x_45_47
   + 27 x_45_48 + 67 x_45_49 + 25 x_46_47 + 57 x_46_48 + 37 x_46_49
   + 80 x_47_48 + 30 x_47_49 + 92 x_48_49 + 1759 Constant
Subject To
 c_0: y_17 = 1
 c_1_0: y_0 >= 1
 c_1_1: y_1 + y_21 >= 1
 c_1_2: y_2 + y_43 >= 1
 c_1_3: y_3 >= 1
 c_1_4: y_4 + y_16 + y_38 >= 1
 c_1_5: y_5 + y_42 >= 1
 c_1_6: y_6 + y_23 >= 1
 c_1_7: y_7 >= 1
 c_1_8: y_8 + y_9 + y_36 >= 1
 c_1_9: y_8 + y_9 + y_31 + y_36 >= 1
 c_1_10: y_10 + y_27 >= 1
 c_1_11: y_11 + y_18 >= 1
 c_1_12: y_12 + y_34 + y_47 >= 1
 c_1_13: y_13 >= 1
 c_1_14: y_14 + y_43 >= 1
 c_1_15: y_15 >= 1
 c_1_16: y_4 + y_16 + y_38 >= 1
 c_1_17: y_17 >= 1
 c_1_18: y_11 + y_18 >= 1
 c_1_19: y_19 + y_30 + y_39 >= 1
 c_1_20: y_20 >= 1
 c_1_21: y_1 + y_21 >= 1
 c_1_22: y_22 >= 1
 c_1_23: y_6 + y_23 >= 1
 c_1_24: y_24 + y_40 >= 1
 c_1_25: y_25 + y_37 >= 1
 c_1_26: y_26 >= 1
 c_1_27: y_10 + y_27 >= 1
 c_1_28: y_28 + y_33 >= 1
 c_1_29: y_29 >= 1
 c_1_30: y_19 + y_30 + y_39 >= 1
 c_1_31: y_9 + y_31 >= 1
 c_1_32: y_32 + y_45 >= 1
 c_1_33: y_28 + y_33 + y_42 >= 1
 c_1_34: y_12 + y_34 + y_47 >= 1
 c_1_35: y_35 >= 1
 c_1_36: y_8 + y_9 + y_36 >= 1
 c_1_37: y_25 + y_37 >= 1
 c_1_38: y_4 + y_16 + y_38 >= 1
 c_1_39: y_19 + y_30 + y_39 >= 1
 c_1_40: y_24 + y_40 >= 1
 c_1_41: y_41 >= 1
 c_1_42: y_5 + y_33 + y_42 >= 1
 c_1_43: y_2 + y_14 + y_43 >= 1
 c_1_44: y_44 + y_46 >= 1
 c_1_45: y_32 + y_45 >= 1
 c_1_46: y_44 + y_46 >= 1
 c_1_47: y_12 + y_34 + y_47 >= 1
 c_1_48: y_48 >= 1
 c_1_49: y_49 >= 1
 c_2_0: - 2 y_0 + x_0_1 + x_0_2 + x_0_3 + x_0_4 + x_0_6 + x_0_8 + x_0_9
   + x_0_10 + x_0_11 + x_0_12 + x_0_13 + x_0_14 + x_0_15 + x_0_16 + x_0_17
   + x_0_18 + x_0_19 + x_0_20 + x_0_22 + x_0_23 + x_0_24 + x_0_26 + x_0_29
   + x_0_30 + x_0_31 + x_0_33 + x_0_35 + x_0_36 + x_0_37 + x_0_38 + x_0_40
   + x_0_41 + x_0_42 + x_0_43 + x_0_44 + x_0_45 + x_0_46 + x_0_49 = 0
 c_2_1: - 2 y_1 + x_0_1 + x_1_2 + x_1_3 + x_1_4 + x_1_5 + x_1_6 + x_1_7
   + x_1_9 + x_1_11 + x_1_13 + x_1_15 + x_1_16 + x_1_17 + x_1_19 + x_1_20
   + x_1_21 + x_1_22 + x_1_23 + x_1_25 + x_1_30 + x_1_31 + x_1_32 + x_1_33
   + x_1_35 + x_1_36 + x_1_37 + x_1_38 + x_1_39 + x_1_40 + x_1_41 + x_1_42
   + x_1_43 + x_1_44 + x_1_45 + x_1_46 + x_1_47 = 0
 c_2_2: - 2 y_2 + x_0_2 + x_1_2 + x_2_4 + x_2_6 + x_2_7 + x_2_9 + x_2_10
   + x_2_12 + x_2_13 + x_2_14 + x_2_15 + x_2_16 + x_2_17 + x_2_19 + x_2_20
   + x_2_21 + x_2_23 + x_2_24 + x_2_28 + x_2_30 + x_2_32 + x_2_33 + x_2_34
   + x_2_35 + x_2_37 + x_2_38 + x_2_39 + x_2_42 + x_2_43 + x_2_44 + x_2_45
   + x_2_46 + x_2_48 + x_2_49 = 0
 c_2_3: - 2 y_3 + x_0_3 + x_1_3 + x_3_6 + x_3_8 + x_3_10 + x_3_11 + x_3_12
   + x_3_14 + x_3_16 + x_3_17 + x_3_18 + x_3_20 + x_3_21 + x_3_22 + x_3_24
   + x_3_25 + x_3_26 + x_3_29 + x_3_30 + x_3_32 + x_3_33 + x_3_35 + x_3_36
   + x_3_37 + x_3_38 + x_3_40 + x_3_41 + x_3_43 + x_3_46 + x_3_47 = 0
 c_2_4: - 2 y_4 + x_0_4 + x_1_4 + x_2_4 + x_4_5 + x_4_6 + x_4_7 + x_4_8
   + x_4_9 + x_4_10 + x_4_11 + x_4_12 + x_4_14 + x_4_15 + x_4_16 + x_4_17
   + x_4_18 + x_4_20 + x_4_21 + x_4_22 + x_4_23 + x_4_24 + x_4_25 + x_4_27
   + x_4_28 + x_4_32 + x_4_35 + x_4_39 + x_4_40 + x_4_41 + x_4_44 + x_4_46
   + x_4_47 + x_4_48 + x_4_49 = 0
 c_2_5: - 2 y_5 + x_1_5 + x_4_5 + x_5_6 + x_5_7 + x_5_8 + x_5_10 + x_5_11
   + x_5_12 + x_5_13 + x_5_14 + x_5_15 + x_5_16 + x_5_17 + x_5_18 + x_5_19
   + x_5_20 + x_5_21 + x_5_23 + x_5_24 + x_5_25 + x_5_27 + x_5_28 + x_5_29
   + x_5_31 + x_5_33 + x_5_34 + x_5_35 + x_5_36 + x_5_37 + x_5_38 + x_5_40
   + x_5_41 + x_5_42 + x_5_43 + x_5_44 + x_5_45 + x_5_47 + x_5_48 + x_5_49
   = 0
 c_2_6: - 2 y_6 + x_0_6 + x_1_6 + x_2_6 + x_3_6 + x_4_6 + x_5_6 + x_6_7
   + x_6_8 + x_6_10 + x_6_13 + x_6_14 + x_6_15 + x_6_16 + x_6_17 + x_6_18
   + x_6_19 + x_6_20 + x_6_21 + x_6_22 + x_6_24 + x_6_25 + x_6_26 + x_6_27
   + x_6_28 + x_6_29 + x_6_31 + x_6_32 + x_6_33 + x_6_34 + x_6_35 + x_6_38
   + x_6_39 + x_6_40 + x_6_42 + x_6_43 + x_6_44 + x_6_45 + x_6_47 + x_6_48
   = 0
 c_2_7: - 2 y_7 + x_1_7 + x_2_7 + x_4_7 + x_5_7 + x_6_7 + x_7_8 + x_7_9
   + x_7_10 + x_7_11 + x_7_12 + x_7_13 + x_7_14 + x_7_15 + x_7_17 + x_7_19
   + x_7_21 + x_7_23 + x_7_24 + x_7_26 + x_7_28 + x_7_29 + x_7_31 + x_7_32
   + x_7_33 + x_7_35 + x_7_36 + x_7_37 + x_7_39 + x_7_41 + x_7_42 + x_7_43
   + x_7_44 + x_7_45 + x_7_46 + x_7_47 + x_7_48 + x_7_49 = 0
 c_2_8: - 2 y_8 + x_0_8 + x_3_8 + x_4_8 + x_5_8 + x_6_8 + x_7_8 + x_8_9
   + x_8_10 + x_8_13 + x_8_14 + x_8_16 + x_8_17 + x_8_18 + x_8_19 + x_8_20
   + x_8_21 + x_8_22 + x_8_23 + x_8_24 + x_8_25 + x_8_26 + x_8_27 + x_8_28
   + x_8_29 + x_8_30 + x_8_32 + x_8_33 + x_8_35 + x_8_36 + x_8_37 + x_8_38
   + x_8_39 + x_8_41 + x_8_42 + x_8_44 + x_8_45 + x_8_46 + x_8_47 + x_8_49
   = 0
 c_2_9: - 2 y_9 + x_0_9 + x_1_9 + x_2_9 + x_4_9 + x_7_9 + x_8_9 + x_9_10
   + x_9_11 + x_9_12 + x_9_13 + x_9_14 + x_9_15 + x_9_21 + x_9_22 + x_9_24
   + x_9_26 + x_9_27 + x_9_28 + x_9_29 + x_9_30 + x_9_31 + x_9_32 + x_9_33
   + x_9_35 + x_9_36 + x_9_39 + x_9_40 + x_9_41 + x_9_42 + x_9_44 + x_9_48
   = 0
 c_2_10: - 2 y_10 + x_0_10 + x_2_10 + x_3_10 + x_4_10 + x_5_10 + x_6_10
   + x_7_10 + x_8_10 + x_9_10 + x_10_11 + x_10_12 + x_10_13 + x_10_15
   + x_10_16 + x_10_17 + x_10_18 + x_10_21 + x_10_23 + x_10_24 + x_10_25
   + x_10_27 + x_10_28 + x_10_29 + x_10_30 + x_10_31 + x_10_32 + x_10_33
   + x_10_34 + x_10_37 + x_10_38 + x_10_47 + x_10_48 = 0
 c_2_11: - 2 y_11 + x_0_11 + x_1_11 + x_3_11 + x_4_11 + x_5_11 + x_7_11
   + x_9_11 + x_10_11 + x_11_12 + x_11_13 + x_11_16 + x_11_19 + x_11_20
   + x_11_21 + x_11_23 + x_11_25 + x_11_26 + x_11_28 + x_11_29 + x_11_30
   + x_11_32 + x_11_34 + x_11_35 + x_11_37 + x_11_38 + x_11_40 + x_11_41
   + x_11_44 + x_11_45 + x_11_48 + x_11_49 = 0
 c_2_12: - 2 y_12 + x_0_12 + x_2_12 + x_3_12 + x_4_12 + x_5_12 + x_7_12
   + x_9_12 + x_10_12 + x_11_12 + x_12_14 + x_12_16 + x_12_17 + x_12_18
   + x_12_19 + x_12_20 + x_12_21 + x_12_22 + x_12_23 + x_12_24 + x_12_26
   + x_12_27 + x_12_28 + x_12_29 + x_12_32 + x_12_33 + x_12_34 + x_12_35
   + x_12_36 + x_12_37 + x_12_38 + x_12_39 + x_12_40 + x_12_41 + x_12_43
   + x_12_44 + x_12_47 + x_12_49 = 0
 c_2_13: - 2 y_13 + x_0_13 + x_1_13 + x_2_13 + x_5_13 + x_6_13 + x_7_13
   + x_8_13 + x_9_13 + x_10_13 + x_11_13 + x_13_14 + x_13_15 + x_13_18
   + x_13_20 + x_13_23 + x_13_24 + x_13_25 + x_13_27 + x_13_28 + x_13_31
   + x_13_32 + x_13_34 + x_13_35 + x_13_37 + x_13_38 + x_13_39 + x_13_40
   + x_13_42 + x_13_44 + x_13_46 + x_13_47 + x_13_49 = 0
 c_2_14: - 2 y_14 + x_0_14 + x_2_14 + x_3_14 + x_4_14 + x_5_14 + x_6_14
   + x_7_14 + x_8_14 + x_9_14 + x_12_14 + x_13_14 + x_14_15 + x_14_16
   + x_14_18 + x_14_19 + x_14_21 + x_14_22 + x_14_23 + x_14_24 + x_14_26
   + x_14_27 + x_14_28 + x_14_30 + x_14_31 + x_14_36 + x_14_37 + x_14_38
   + x_14_39 + x_14_40 + x_14_42 + x_14_43 + x_14_44 + x_14_46 + x_14_47
   + x_14_48 + x_14_49 = 0
 c_2_15: - 2 y_15 + x_0_15 + x_1_15 + x_2_15 + x_4_15 + x_5_15 + x_6_15
   + x_7_15 + x_9_15 + x_10_15 + x_13_15 + x_14_15 + x_15_16 + x_15_17
   + x_15_18 + x_15_19 + x_15_20 + x_15_21 + x_15_22 + x_15_23 + x_15_24
   + x_15_26 + x_15_27 + x_15_28 + x_15_29 + x_15_30 + x_15_32 + x_15_33
   + x_15_39 + x_15_40 + x_15_41 + x_15_42 + x_15_43 + x_15_44 + x_15_45
   + x_15_46 + x_15_47 + x_15_48 + x_15_49 = 0
 c_2_16: - 2 y_16 + x_0_16 + x_1_16 + x_2_16 + x_3_16 + x_4_16 + x_5_16
   + x_6_16 + x_8_16 + x_10_16 + x_11_16 + x_12_16 + x_14_16 + x_15_16
   + x_16_17 + x_16_18 + x_16_20 + x_16_21 + x_16_22 + x_16_23 + x_16_24
   + x_16_25 + x_16_26 + x_16_27 + x_16_29 + x_16_30 + x_16_33 + x_16_34
   + x_16_35 + x_16_36 + x_16_38 + x_16_39 + x_16_40 + x_16_41 + x_16_42
   + x_16_43 + x_16_45 + x_16_46 + x_16_47 + x_16_49 = 0
 c_2_17: - 2 y_17 + x_0_17 + x_1_17 + x_2_17 + x_3_17 + x_4_17 + x_5_17
   + x_6_17 + x_7_17 + x_8_17 + x_10_17 + x_12_17 + x_15_17 + x_16_17
   + x_17_19 + x_17_20 + x_17_21 + x_17_22 + x_17_23 + x_17_24 + x_17_25
   + x_17_26 + x_17_28 + x_17_29 + x_17_31 + x_17_32 + x_17_34 + x_17_35
   + x_17_37 + x_17_38 + x_17_39 + x_17_40 + x_17_41 + x_17_44 + x_17_47
   + x_17_49 = 0
 c_2_18: - 2 y_18 + x_0_18 + x_3_18 + x_4_18 + x_5_18 + x_6_18 + x_8_18
   + x_10_18 + x_12_18 + x_13_18 + x_14_18 + x_15_18 + x_16_18 + x_18_19
   + x_18_21 + x_18_24 + x_18_28 + x_18_29 + x_18_30 + x_18_31 + x_18_32
   + x_18_34 + x_18_35 + x_18_36 + x_18_37 + x_18_38 + x_18_39 + x_18_40
   + x_18_41 + x_18_42 + x_18_43 + x_18_44 + x_18_45 + x_18_46 + x_18_47
   + x_18_48 = 0
 c_2_19: - 2 y_19 + x_0_19 + x_1_19 + x_2_19 + x_5_19 + x_6_19 + x_7_19
   + x_8_19 + x_11_19 + x_12_19 + x_14_19 + x_15_19 + x_17_19 + x_18_19
   + x_19_22 + x_19_23 + x_19_25 + x_19_26 + x_19_27 + x_19_28 + x_19_29
   + x_19_31 + x_19_32 + x_19_33 + x_19_34 + x_19_35 + x_19_37 + x_19_38
   + x_19_40 + x_19_41 + x_19_44 + x_19_45 + x_19_46 + x_19_48 + x_19_49
   = 0
 c_2_20: - 2 y_20 + x_0_20 + x_1_20 + x_2_20 + x_3_20 + x_4_20 + x_5_20
   + x_6_20 + x_8_20 + x_11_20 + x_12_20 + x_13_20 + x_15_20 + x_16_20
   + x_17_20 + x_20_21 + x_20_22 + x_20_24 + x_20_25 + x_20_26 + x_20_27
   + x_20_28 + x_20_30 + x_20_32 + x_20_33 + x_20_35 + x_20_38 + x_20_39
   + x_20_40 + x_20_41 + x_20_42 + x_20_43 + x_20_44 + x_20_45 + x_20_46
   + x_20_47 + x_20_49 = 0
 c_2_21: - 2 y_21 + x_1_21 + x_2_21 + x_3_21 + x_4_21 + x_5_21 + x_6_21
   + x_7_21 + x_8_21 + x_9_21 + x_10_21 + x_11_21 + x_12_21 + x_14_21
   + x_15_21 + x_16_21 + x_17_21 + x_18_21 + x_20_21 + x_21_22 + x_21_23
   + x_21_26 + x_21_27 + x_21_28 + x_21_29 + x_21_30 + x_21_32 + x_21_33
   + x_21_34 + x_21_35 + x_21_36 + x_21_37 + x_21_38 + x_21_42 + x_21_43
   + x_21_44 + x_21_47 + x_21_48 = 0
 c_2_22: - 2 y_22 + x_0_22 + x_1_22 + x_3_22 + x_4_22 + x_6_22 + x_8_22
   + x_9_22 + x_12_22 + x_14_22 + x_15_22 + x_16_22 + x_17_22 + x_19_22
   + x_20_22 + x_21_22 + x_22_23 + x_22_24 + x_22_25 + x_22_27 + x_22_29
   + x_22_30 + x_22_31 + x_22_32 + x_22_35 + x_22_36 + x_22_37 + x_22_38
   + x_22_39 + x_22_40 + x_22_41 + x_22_42 + x_22_44 + x_22_46 + x_22_47
   + x_22_49 = 0
 c_2_23: - 2 y_23 + x_0_23 + x_1_23 + x_2_23 + x_4_23 + x_5_23 + x_7_23
   + x_8_23 + x_10_23 + x_11_23 + x_12_23 + x_13_23 + x_14_23 + x_15_23
   + x_16_23 + x_17_23 + x_19_23 + x_21_23 + x_22_23 + x_23_24 + x_23_26
   + x_23_27 + x_23_28 + x_23_30 + x_23_31 + x_23_32 + x_23_33 + x_23_36
   + x_23_38 + x_23_39 + x_23_40 + x_23_41 + x_23_42 + x_23_43 + x_23_44
   + x_23_45 + x_23_46 + x_23_48 = 0
 c_2_24: - 2 y_24 + x_0_24 + x_2_24 + x_3_24 + x_4_24 + x_5_24 + x_6_24
   + x_7_24 + x_8_24 + x_9_24 + x_10_24 + x_12_24 + x_13_24 + x_14_24
   + x_15_24 + x_16_24 + x_17_24 + x_18_24 + x_20_24 + x_22_24 + x_23_24
   + x_24_25 + x_24_27 + x_24_30 + x_24_31 + x_24_33 + x_24_35 + x_24_37
   + x_24_38 + x_24_39 + x_24_40 + x_24_42 + x_24_43 + x_24_45 + x_24_46
   + x_24_49 = 0
 c_2_25: - 2 y_25 + x_1_25 + x_3_25 + x_4_25 + x_5_25 + x_6_25 + x_8_25
   + x_10_25 + x_11_25 + x_13_25 + x_16_25 + x_17_25 + x_19_25 + x_20_25
   + x_22_25 + x_24_25 + x_25_28 + x_25_30 + x_25_31 + x_25_36 + x_25_37
   + x_25_41 + x_25_43 + x_25_44 + x_25_45 + x_25_46 + x_25_47 + x_25_49
   = 0
 c_2_26: - 2 y_26 + x_0_26 + x_3_26 + x_6_26 + x_7_26 + x_8_26 + x_9_26
   + x_11_26 + x_12_26 + x_14_26 + x_15_26 + x_16_26 + x_17_26 + x_19_26
   + x_20_26 + x_21_26 + x_23_26 + x_26_27 + x_26_29 + x_26_31 + x_26_33
   + x_26_34 + x_26_35 + x_26_36 + x_26_37 + x_26_38 + x_26_40 + x_26_41
   + x_26_42 + x_26_43 + x_26_44 + x_26_46 + x_26_47 + x_26_49 = 0
 c_2_27: - 2 y_27 + x_4_27 + x_5_27 + x_6_27 + x_8_27 + x_9_27 + x_10_27
   + x_12_27 + x_13_27 + x_14_27 + x_15_27 + x_16_27 + x_19_27 + x_20_27
   + x_21_27 + x_22_27 + x_23_27 + x_24_27 + x_26_27 + x_27_28 + x_27_29
   + x_27_30 + x_27_33 + x_27_34 + x_27_35 + x_27_36 + x_27_37 + x_27_38
   + x_27_40 + x_27_43 + x_27_45 + x_27_46 + x_27_47 + x_27_49 = 0
 c_2_28: - 2 y_28 + x_2_28 + x_4_28 + x_5_28 + x_6_28 + x_7_28 + x_8_28
   + x_9_28 + x_10_28 + x_11_28 + x_12_28 + x_13_28 + x_14_28 + x_15_28
   + x_17_28 + x_18_28 + x_19_28 + x_20_28 + x_21_28 + x_23_28 + x_25_28
   + x_27_28 + x_28_29 + x_28_30 + x_28_31 + x_28_32 + x_28_33 + x_28_35
   + x_28_36 + x_28_37 + x_28_38 + x_28_39 + x_28_40 + x_28_41 + x_28_42
   + x_28_44 + x_28_45 + x_28_48 = 0
 c_2_29: - 2 y_29 + x_0_29 + x_3_29 + x_5_29 + x_6_29 + x_7_29 + x_8_29
   + x_9_29 + x_10_29 + x_11_29 + x_12_29 + x_15_29 + x_16_29 + x_17_29
   + x_18_29 + x_19_29 + x_21_29 + x_22_29 + x_26_29 + x_27_29 + x_28_29
   + x_29_31 + x_29_32 + x_29_33 + x_29_36 + x_29_38 + x_29_39 + x_29_40
   + x_29_42 + x_29_43 + x_29_46 + x_29_47 + x_29_48 + x_29_49 = 0
 c_2_30: - 2 y_30 + x_0_30 + x_1_30 + x_2_30 + x_3_30 + x_8_30 + x_9_30
   + x_10_30 + x_11_30 + x_14_30 + x_15_30 + x_16_30 + x_18_30 + x_20_30
   + x_21_30 + x_22_30 + x_23_30 + x_24_30 + x_25_30 + x_27_30 + x_28_30
   + x_30_31 + x_30_32 + x_30_34 + x_30_36 + x_30_37 + x_30_38 + x_30_39
   + x_30_40 + x_30_42 + x_30_44 + x_30_47 + x_30_49 = 0
 c_2_31: - 2 y_31 + x_0_31 + x_1_31 + x_5_31 + x_6_31 + x_7_31 + x_9_31
   + x_10_31 + x_13_31 + x_14_31 + x_17_31 + x_18_31 + x_19_31 + x_22_31
   + x_23_31 + x_24_31 + x_25_31 + x_26_31 + x_28_31 + x_29_31 + x_30_31
   + x_31_32 + x_31_33 + x_31_34 + x_31_36 + x_31_37 + x_31_38 + x_31_40
   + x_31_41 + x_31_44 + x_31_45 + x_31_46 + x_31_49 = 0
 c_2_32: - 2 y_32 + x_1_32 + x_2_32 + x_3_32 + x_4_32 + x_6_32 + x_7_32
   + x_8_32 + x_9_32 + x_10_32 + x_11_32 + x_12_32 + x_13_32 + x_15_32
   + x_17_32 + x_18_32 + x_19_32 + x_20_32 + x_21_32 + x_22_32 + x_23_32
   + x_28_32 + x_29_32 + x_30_32 + x_31_32 + x_32_33 + x_32_34 + x_32_35
   + x_32_36 + x_32_37 + x_32_39 + x_32_40 + x_32_42 + x_32_44 + x_32_45
   + x_32_47 = 0
 c_2_33: - 2 y_33 + x_0_33 + x_1_33 + x_2_33 + x_3_33 + x_5_33 + x_6_33
   + x_7_33 + x_8_33 + x_9_33 + x_10_33 + x_12_33 + x_15_33 + x_16_33
   + x_19_33 + x_20_33 + x_21_33 + x_23_33 + x_24_33 + x_26_33 + x_27_33
   + x_28_33 + x_29_33 + x_31_33 + x_32_33 + x_33_35 + x_33_37 + x_33_38
   + x_33_40 + x_33_41 + x_33_43 + x_33_44 + x_33_46 + x_33_49 = 0
 c_2_34: - 2 y_34 + x_2_34 + x_5_34 + x_6_34 + x_10_34 + x_11_34 + x_12_34
   + x_13_34 + x_16_34 + x_17_34 + x_18_34 + x_19_34 + x_21_34 + x_26_34
   + x_27_34 + x_30_34 + x_31_34 + x_32_34 + x_34_35 + x_34_36 + x_34_37
   + x_34_38 + x_34_39 + x_34_40 + x_34_44 + x_34_47 + x_34_49 = 0
 c_2_35: - 2 y_35 + x_0_35 + x_1_35 + x_2_35 + x_3_35 + x_4_35 + x_5_35
   + x_6_35 + x_7_35 + x_8_35 + x_9_35 + x_11_35 + x_12_35 + x_13_35
   + x_16_35 + x_17_35 + x_18_35 + x_19_35 + x_20_35 + x_21_35 + x_22_35
   + x_24_35 + x_26_35 + x_27_35 + x_28_35 + x_32_35 + x_33_35 + x_34_35
   + x_35_37 + x_35_38 + x_35_39 + x_35_41 + x_35_42 + x_35_43 + x_35_46
   + x_35_48 + x_35_49 = 0
 c_2_36: - 2 y_36 + x_0_36 + x_1_36 + x_3_36 + x_5_36 + x_7_36 + x_8_36
   + x_9_36 + x_12_36 + x_14_36 + x_16_36 + x_18_36 + x_21_36 + x_22_36
   + x_23_36 + x_25_36 + x_26_36 + x_27_36 + x_28_36 + x_29_36 + x_30_36
   + x_31_36 + x_32_36 + x_34_36 + x_36_37 + x_36_38 + x_36_39 + x_36_40
   + x_36_42 + x_36_43 + x_36_45 + x_36_46 + x_36_47 + x_36_48 + x_36_49
   = 0
 c_2_37: - 2 y_37 + x_0_37 + x_1_37 + x_2_37 + x_3_37 + x_5_37 + x_7_37
   + x_8_37 + x_10_37 + x_11_37 + x_12_37 + x_13_37 + x_14_37 + x_17_37
   + x_18_37 + x_19_37 + x_21_37 + x_22_37 + x_24_37 + x_25_37 + x_26_37
   + x_27_37 + x_28_37 + x_30_37 + x_31_37 + x_32_37 + x_33_37 + x_34_37
   + x_35_37 + x_36_37 + x_37_40 + x_37_41 + x_37_42 + x_37_43 + x_37_45
   + x_37_46 + x_37_47 + x_37_48 + x_37_49 = 0
 c_2_38: - 2 y_38 + x_0_38 + x_1_38 + x_2_38 + x_3_38 + x_5_38 + x_6_38
   + x_8_38 + x_10_38 + x_11_38 + x_12_38 + x_13_38 + x_14_38 + x_16_38
   + x_17_38 + x_18_38 + x_19_38 + x_20_38 + x_21_38 + x_22_38 + x_23_38
   + x_24_38 + x_26_38 + x_27_38 + x_28_38 + x_29_38 + x_30_38 + x_31_38
   + x_33_38 + x_34_38 + x_35_38 + x_36_38 + x_38_40 + x_38_42 + x_38_43
   + x_38_44 + x_38_46 + x_38_47 + x_38_48 = 0
 c_2_39: - 2 y_39 + x_1_39 + x_2_39 + x_4_39 + x_6_39 + x_7_39 + x_8_39
   + x_9_39 + x_12_39 + x_13_39 + x_14_39 + x_15_39 + x_16_39 + x_17_39
   + x_18_39 + x_20_39 + x_22_39 + x_23_39 + x_24_39 + x_28_39 + x_29_39
   + x_30_39 + x_32_39 + x_34_39 + x_35_39 + x_36_39 + x_39_40 + x_39_41
   + x_39_44 + x_39_45 + x_39_47 + x_39_48 + x_39_49 = 0
 c_2_40: - 2 y_40 + x_0_40 + x_1_40 + x_3_40 + x_4_40 + x_5_40 + x_6_40
   + x_9_40 + x_11_40 + x_12_40 + x_13_40 + x_14_40 + x_15_40 + x_16_40
   + x_17_40 + x_18_40 + x_19_40 + x_20_40 + x_22_40 + x_23_40 + x_24_40
   + x_26_40 + x_27_40 + x_28_40 + x_29_40 + x_30_40 + x_31_40 + x_32_40
   + x_33_40 + x_34_40 + x_36_40 + x_37_40 + x_38_40 + x_39_40 + x_40_45
   + x_40_46 + x_40_47 + x_40_48 + x_40_49 = 0
 c_2_41: - 2 y_41 + x_0_41 + x_1_41 + x_3_41 + x_4_41 + x_5_41 + x_7_41
   + x_8_41 + x_9_41 + x_11_41 + x_12_41 + x_15_41 + x_16_41 + x_17_41
   + x_18_41 + x_19_41 + x_20_41 + x_22_41 + x_23_41 + x_25_41 + x_26_41
   + x_28_41 + x_31_41 + x_33_41 + x_35_41 + x_37_41 + x_39_41 + x_41_42
   + x_41_43 + x_41_44 + x_41_48 + x_41_49 = 0
 c_2_42: - 2 y_42 + x_0_42 + x_1_42 + x_2_42 + x_5_42 + x_6_42 + x_7_42
   + x_8_42 + x_9_42 + x_13_42 + x_14_42 + x_15_42 + x_16_42 + x_18_42
   + x_20_42 + x_21_42 + x_22_42 + x_23_42 + x_24_42 + x_26_42 + x_28_42
   + x_29_42 + x_30_42 + x_32_42 + x_35_42 + x_36_42 + x_37_42 + x_38_42
   + x_41_42 + x_42_44 = 0
 c_2_43: - 2 y_43 + x_0_43 + x_1_43 + x_2_43 + x_3_43 + x_5_43 + x_6_43
   + x_7_43 + x_12_43 + x_14_43 + x_15_43 + x_16_43 + x_18_43 + x_20_43
   + x_21_43 + x_23_43 + x_24_43 + x_25_43 + x_26_43 + x_27_43 + x_29_43
   + x_33_43 + x_35_43 + x_36_43 + x_37_43 + x_38_43 + x_41_43 + x_43_44
   + x_43_45 + x_43_46 + x_43_47 + x_43_48 + x_43_49 = 0
 c_2_44: - 2 y_44 + x_0_44 + x_1_44 + x_2_44 + x_4_44 + x_5_44 + x_6_44
   + x_7_44 + x_8_44 + x_9_44 + x_11_44 + x_12_44 + x_13_44 + x_14_44
   + x_15_44 + x_17_44 + x_18_44 + x_19_44 + x_20_44 + x_21_44 + x_22_44
   + x_23_44 + x_25_44 + x_26_44 + x_28_44 + x_30_44 + x_31_44 + x_32_44
   + x_33_44 + x_34_44 + x_38_44 + x_39_44 + x_41_44 + x_42_44 + x_43_44
   + x_44_45 + x_44_46 + x_44_49 = 0
 c_2_45: - 2 y_45 + x_0_45 + x_1_45 + x_2_45 + x_5_45 + x_6_45 + x_7_45
   + x_8_45 + x_11_45 + x_15_45 + x_16_45 + x_18_45 + x_19_45 + x_20_45
   + x_23_45 + x_24_45 + x_25_45 + x_27_45 + x_28_45 + x_31_45 + x_32_45
   + x_36_45 + x_37_45 + x_39_45 + x_40_45 + x_43_45 + x_44_45 + x_45_46
   + x_45_47 + x_45_48 + x_45_49 = 0
 c_2_46: - 2 y_46 + x_0_46 + x_1_46 + x_2_46 + x_3_46 + x_4_46 + x_7_46
   + x_8_46 + x_13_46 + x_14_46 + x_15_46 + x_16_46 + x_18_46 + x_19_46
   + x_20_46 + x_22_46 + x_23_46 + x_24_46 + x_25_46 + x_26_46 + x_27_46
   + x_29_46 + x_31_46 + x_33_46 + x_35_46 + x_36_46 + x_37_46 + x_38_46
   + x_40_46 + x_43_46 + x_44_46 + x_45_46 + x_46_47 + x_46_48 + x_46_49
   = 0
 c_2_47: - 2 y_47 + x_1_47 + x_3_47 + x_4_47 + x_5_47 + x_6_47 + x_7_47
   + x_8_47 + x_10_47 + x_12_47 + x_13_47 + x_14_47 + x_15_47 + x_16_47
   + x_17_47 + x_18_47 + x_20_47 + x_21_47 + x_22_47 + x_25_47 + x_26_47
   + x_27_47 + x_29_47 + x_30_47 + x_32_47 + x_34_47 + x_36_47 + x_37_47
   + x_38_47 + x_39_47 + x_40_47 + x_43_47 + x_45_47 + x_46_47 + x_47_48
   + x_47_49 = 0
 c_2_48: - 2 y_48 + x_2_48 + x_4_48 + x_5_48 + x_6_48 + x_7_48 + x_9_48
   + x_10_48 + x_11_48 + x_14_48 + x_15_48 + x_18_48 + x_19_48 + x_21_48
   + x_23_48 + x_28_48 + x_29_48 + x_35_48 + x_36_48 + x_37_48 + x_38_48
   + x_39_48 + x_40_48 + x_41_48 + x_43_48 + x_45_48 + x_46_48 + x_47_48
   + x_48_49 = 0
 c_2_49: - 2 y_49 + x_0_49 + x_2_49 + x_4_49 + x_5_49 + x_7_49 + x_8_49
   + x_11_49 + x_12_49 + x_13_49 + x_14_49 + x_15_49 + x_16_49 + x_17_49
   + x_19_49 + x_20_49 + x_22_49 + x_24_49 + x_25_49 + x_26_49 + x_27_49
   + x_29_49 + x_30_49 + x_31_49 + x_33_49 + x_34_49 + x_35_49 + x_36_49
   + x_37_49 + x_39_49 + x_40_49 + x_41_49 + x_43_49 + x_44_49 + x_45_49
   + x_46_49 + x_47_49 + x_48_49 = 0
Bounds
 Constant = 1
Binaries
 y_0 y_1 y_2 y_3 y_4 y_5 y_6 y_7 y_8 y_9 y_10 y_11 y_12 y_13 y_14 y_15 y_16
 y_17 y_18 y_19 y_20 y_21 y_22 y_23 y_24 y_25 y_26 y_27 y_28 y_29 y_30 y_31
 y_32 y_33 y_34 y_35 y_36 y_37 y_38 y_39 y_40 y_41 y_42 y_43 y_44 y_45 y_46
 y_47 y_48 y_49 x_0_1 x_0_2 x_0_3 x_0_4 x_0_6 x_0_8 x_0_9 x_0_10 x_0_11
 x_0_12 x_0_13 x_0_14 x_0_15 x_0_16 x_0_17 x_0_18 x_0_19 x_0_20 x_0_22
 x_0_23 x_0_24 x_0_26 x_0_29 x_0_30 x_0_31 x_0_33 x_0_35 x_0_36 x_0_37
 x_0_38 x_0_40 x_0_41 x_0_42 x_0_43 x_0_44 x_0_45 x_0_46 x_0_49 x_1_2 x_1_3
 x_1_4 x_1_5 x_1_6 x_1_7 x_1_9 x_1_11 x_1_13 x_1_15 x_1_16 x_1_17 x_1_19
 x_1_20 x_1_21 x_1_22 x_1_23 x_1_25 x_1_30 x_1_31 x_1_32 x_1_33 x_1_35
 x_1_36 x_1_37 x_1_38 x_1_39 x_1_40 x_1_41 x_1_42 x_1_43 x_1_44 x_1_45
 x_1_46 x_1_47 x_2_4 x_2_6 x_2_7 x_2_9 x_2_10 x_2_12 x_2_13 x_2_14 x_2_15
 x_2_16 x_2_17 x_2_19 x_2_20 x_2_21 x_2_23 x_2_24 x_2_28 x_2_30 x_2_32
 x_2_33 x_2_34 x_2_35 x_2_37 x_2_38 x_2_39 x_2_42 x_2_43 x_2_44 x_2_45
 x_2_46 x_2_48 x_2_49 x_3_6 x_3_8 x_3_10 x_3_11 x_3_12 x_3_14 x_3_16 x_3_17
 x_3_18 x_3_20 x_3_21 x_3_22 x_3_24 x_3_25 x_3_26 x_3_29 x_3_30 x_3_32
 x_3_33 x_3_35 x_3_36 x_3_37 x_3_38 x_3_40 x_3_41 x_3_43 x_3_46 x_3_47
 x_4_5 x_4_6 x_4_7 x_4_8 x_4_9 x_4_10 x_4_11 x_4_12 x_4_14 x_4_15 x_4_16
 x_4_17 x_4_18 x_4_20 x_4_21 x_4_22 x_4_23 x_4_24 x_4_25 x_4_27 x_4_28
 x_4_32 x_4_35 x_4_39 x_4_40 x_4_41 x_4_44 x_4_46 x_4_47 x_4_48 x_4_49
 x_5_6 x_5_7 x_5_8 x_5_10 x_5_11 x_5_12 x_5_13 x_5_14 x_5_15 x_5_16 x_5_17
 x_5_18 x_5_19 x_5_20 x_5_21 x_5_23 x_5_24 x_5_25 x_5_27 x_5_28 x_5_29
 x_5_31 x_5_33 x_5_34 x_5_35 x_5_36 x_5_37 x_5_38 x_5_40 x_5_41 x_5_42
 x_5_43 x_5_44 x_5_45 x_5_47 x_5_48 x_5_49 x_6_7 x_6_8 x_6_10 x_6_13 x_6_14
 x_6_15 x_6_16 x_6_17 x_6_18 x_6_19 x_6_20 x_6_21 x_6_22 x_6_24 x_6_25
 x_6_26 x_6_27 x_6_28 x_6_29 x_6_31 x_6_32 x_6_33 x_6_34 x_6_35 x_6_38
 x_6_39 x_6_40 x_6_42 x_6_43 x_6_44 x_6_45 x_6_47 x_6_48 x_7_8 x_7_9 x_7_10
 x_7_11 x_7_12 x_7_13 x_7_14 x_7_15 x_7_17 x_7_19 x_7_21 x_7_23 x_7_24
 x_7_26 x_7_28 x_7_29 x_7_31 x_7_32 x_7_33 x_7_35 x_7_36 x_7_37 x_7_39
 x_7_41 x_7_42 x_7_43 x_7_44 x_7_45 x_7_46 x_7_47 x_7_48 x_7_49 x_8_9
 x_8_10 x_8_13 x_8_14 x_8_16 x_8_17 x_8_18 x_8_19 x_8_20 x_8_21 x_8_22
 x_8_23 x_8_24 x_8_25 x_8_26 x_8_27 x_8_28 x_8_29 x_8_30 x_8_32 x_8_33
 x_8_35 x_8_36 x_8_37 x_8_38 x_8_39 x_8_41 x_8_42 x_8_44 x_8_45 x_8_46
 x_8_47 x_8_49 x_9_10 x_9_11 x_9_12 x_9_13 x_9_14 x_9_15 x_9_21 x_9_22
 x_9_24 x_9_26 x_9_27 x_9_28 x_9_29 x_9_30 x_9_31 x_9_32 x_9_33 x_9_35
 x_9_36 x_9_39 x_9_40 x_9_41 x_9_42 x_9_44 x_9_48 x_10_11 x_10_12 x_10_13
 x_10_15 x_10_16 x_10_17 x_10_18 x_10_21 x_10_23 x_10_24 x_10_25 x_10_27
 x_10_28 x_10_29 x_10_30 x_10_31 x_10_32 x_10_33 x_10_34 x_10_37 x_10_38
 x_10_47 x_10_48 x_11_12 x_11_13 x_11_16 x_11_19 x_11_20 x_11_21 x_11_23
 x_11_25 x_11_26 x_11_28 x_11_29 x_11_30 x_11_32 x_11_34 x_11_35 x_11_37
 x_11_38 x_11_40 x_11_41 x_11_44 x_11_45 x_11_48 x_11_49 x_12_14 x_12_16
 x_12_17 x_12_18 x_12_19 x_12_20 x_12_21 x_12_22 x_12_23 x_12_24 x_12_26
 x_12_27 x_12_28 x_12_29 x_12_32 x_12_33 x_12_34 x_12_35 x_12_36 x_12_37
 x_12_38 x_12_39 x_12_40 x_12_41 x_12_43 x_12_44 x_12_47 x_12_49 x_13_14
 x_13_15 x_13_18 x_13_20 x_13_23 x_13_24 x_13_25 x_13_27 x_13_28 x_13_31
 x_13_32 x_13_34 x_13_35 x_13_37 x_13_38 x_13_39 x_13_40 x_13_42 x_13_44
 x_13_46 x_13_47 x_13_49 x_14_15 x_14_16 x_14_18 x_14_19 x_14_21 x_14_22
 x_14_23 x_14_24 x_14_26 x_14_27 x_14_28 x_14_30 x_14_31 x_14_36 x_14_37
 x_14_38 x_14_39 x_14_40 x_14_42 x_14_43 x_14_44 x_14_46 x_14_47 x_14_48
 x_14_49 x_15_16 x_15_17 x_15_18 x_15_19 x_15_20 x_15_21 x_15_22 x_15_23
 x_15_24 x_15_26 x_15_27 x_15_28 x_15_29 x_15_30 x_15_32 x_15_33 x_15_39
 x_15_40 x_15_41 x_15_42 x_15_43 x_15_44 x_15_45 x_15_46 x_15_47 x_15_48
 x_15_49 x_16_17 x_16_18 x_16_20 x_16_21 x_16_22 x_16_23 x_16_24 x_16_25
 x_16_26 x_16_27 x_16_29 x_16_30 x_16_33 x_16_34 x_16_35 x_16_36 x_16_38
 x_16_39 x_16_40 x_16_41 x_16_42 x_16_43 x_16_45 x_16_46 x_16_47 x_16_49
 x_17_19 x_17_20 x_17_21 x_17_22 x_17_23 x_17_24 x_17_25 x_17_26 x_17_28
 x_17_29 x_17_31 x_17_32 x_17_34 x_17_35 x_17_37 x_17_38 x_17_39 x_17_40
 x_17_41 x_17_44 x_17_47 x_17_49 x_18_19 x_18_21 x_18_24 x_18_28 x_18_29
 x_18_30 x_18_31 x_18_32 x_18_34 x_18_35 x_18_36 x_18_37 x_18_38 x_18_39
 x_18_40 x_18_41 x_18_42 x_18_43 x_18_44 x_18_45 x_18_46 x_18_47 x_18_48
 x_19_22 x_19_23 x_19_25 x_19_26 x_19_27 x_19_28 x_19_29 x_19_31 x_19_32
 x_19_33 x_19_34 x_19_35 x_19_37 x_19_38 x_19_40 x_19_41 x_19_44 x_19_45
 x_19_46 x_19_48 x_19_49 x_20_21 x_20_22 x_20_24 x_20_25 x_20_26 x_20_27
 x_20_28 x_20_30 x_20_32 x_20_33 x_20_35 x_20_38 x_20_39 x_20_40 x_20_41
 x_20_42 x_20_43 x_20_44 x_20_45 x_20_46 x_20_47 x_20_49 x_21_22 x_21_23
 x_21_26 x_21_27 x_21_28 x_21_29 x_21_30 x_21_32 x_21_33 x_21_34 x_21_35
 x_21_36 x_21_37 x_21_38 x_21_42 x_21_43 x_21_44 x_21_47 x_21_48 x_22_23
 x_22_24 x_22_25 x_22_27 x_22_29 x_22_30 x_22_31 x_22_32 x_22_35 x_22_36
 x_22_37 x_22_38 x_22_39 x_22_40 x_22_41 x_22_42 x_22_44 x_22_46 x_22_47
 x_22_49 x_23_24 x_23_26 x_23_27 x_23_28 x_23_30 x_23_31 x_23_32 x_23_33
 x_23_36 x_23_38 x_23_39 x_23_40 x_23_41 x_23_42 x_23_43 x_23_44 x_23_45
 x_23_46 x_23_48 x_24_25 x_24_27 x_24_30 x_24_31 x_24_33 x_24_35 x_24_37
 x_24_38 x_24_39 x_24_40 x_24_42 x_24_43 x_24_45 x_24_46 x_24_49 x_25_28
 x_25_30 x_25_31 x_25_36 x_25_37 x_25_41 x_25_43 x_25_44 x_25_45 x_25_46
 x_25_47 x_25_49 x_26_27 x_26_29 x_26_31 x_26_33 x_26_34 x_26_35 x_26_36
 x_26_37 x_26_38 x_26_40 x_26_41 x_26_42 x_26_43 x_26_44 x_26_46 x_26_47
 x_26_49 x_27_28 x_27_29 x_27_30 x_27_33 x_27_34 x_27_35 x_27_36 x_27_37
 x_27_38 x_27_40 x_27_43 x_27_45 x_27_46 x_27_47 x_27_49 x_28_29 x_28_30
 x_28_31 x_28_32 x_28_33 x_28_35 x_28_36 x_28_37 x_28_38 x_28_39 x_28_40
 x_28_41 x_28_42 x_28_44 x_28_45 x_28_48 x_29_31 x_29_32 x_29_33 x_29_36
 x_29_38 x_29_39 x_29_40 x_29_42 x_29_43 x_29_46 x_29_47 x_29_48 x_29_49
 x_30_31 x_30_32 x_30_34 x_30_36 x_30_37 x_30_38 x_30_39 x_30_40 x_30_42
 x_30_44 x_30_47 x_30_49 x_31_32 x_31_33 x_31_34 x_31_36 x_31_37 x_31_38
 x_31_40 x_31_41 x_31_44 x_31_45 x_31_46 x_31_49 x_32_33 x_32_34 x_32_35
 x_32_36 x_32_37 x_32_39 x_32_40 x_32_42 x_32_44 x_32_45 x_32_47 x_33_35
 x_33_37 x_33_38 x_33_40 x_33_41 x_33_43 x_33_44 x_33_46 x_33_49 x_34_35
 x_34_36 x_34_37 x_34_38 x_34_39 x_34_40 x_34_44 x_34_47 x_34_49 x_35_37
 x_35_38 x_35_39 x_35_41 x_35_42 x_35_43 x_35_46 x_35_48 x_35_49 x_36_37
 x_36_38 x_36_39 x_36_40 x_36_42 x_36_43 x_36_45 x_36_46 x_36_47 x_36_48
 x_36_49 x_37_40 x_37_41 x_37_42 x_37_43 x_37_45 x_37_46 x_37_47 x_37_48
 x_37_49 x_38_40 x_38_42 x_38_43 x_38_44 x_38_46 x_38_47 x_38_48 x_39_40
 x_39_41 x_39_44 x_39_45 x_39_47 x_39_48 x_39_49 x_40_45 x_40_46 x_40_47
 x_40_48 x_40_49 x_41_42 x_41_43 x_41_44 x_41_48 x_41_49 x_42_44 x_43_44
 x_43_45 x_43_46 x_43_47 x_43_48 x_43_49 x_44_45 x_44_46 x_44_49 x_45_46
 x_45_47 x_45_48 x_45_49 x_46_47 x_46_48 x_46_49 x_47_48 x_47_49 x_48_49
End
